NAME: bip_30_8
TYPE: TSP
COMMENT: bip_30_8
DIMENSION: 30
EDGE_WEIGHT_TYPE: EUC_2D
NODE_COORD_SECTION
1 4 82
2 35 71
3 88 78
4 52 91
5 34 0
6 39 60
7 19 53
8 30 68
9 79 83
10 87 41
11 99 46
12 87 6
13 88 90
14 49 28
15 6 11
16 456 400
17 447 406
18 471 435
19 464 415
20 439 420
21 462 452
22 428 448
23 451 445
24 449 488
25 453 487
26 418 451
27 469 442
28 476 491
29 407 411
30 431 490
